Route #1: 25 59 37 68 30 11 19 43 7 29 33
Route #2: 16 34 2 47 31 36 6 17 66 22 44 21 58 10 60 45 9 23 62 3 13 49 27 38 18 52 50 46 35 42
Route #3: 54 64 4 26 56 24 12 40 41 51 39 20
Route #4: 1 57 65 15 8 61 5 28 48 67 53 32 14 63 55
Route #5: 
Route #6: 
Route #7: 
Route #8: 
Route #9: 
cost 1434.434892409678
